SCIP Status        : solving was interrupted [time limit reached]
Total Time         :    3600.00
  solving          :    3600.00
  presolving       :       0.28 (included in solving)
  reading          :       0.00
  copying          :       1.94 (92 #copies) (minimal 0.00, maximal 0.06, average 0.02)
Original Problem   :
  Problem name     : bbbenchmark/pw09_100.1.cut
  Variables        : 101 (100 binary, 0 integer, 0 implicit integer, 1 continuous)
  Constraints      : 1 initial, 1 maximal
  Objective        : minimize, 1 non-zeros (abs.min = 1, abs.max = 1)
Presolved Problem  :
  Problem name     : t_bbbenchmark/pw09_100.1.cut
  Variables        : 1290 (100 binary, 0 integer, 1140 implicit integer, 50 continuous)
  Constraints      : 1288 initial, 8219 maximal
  Objective        : minimize, 1 non-zeros (abs.min = 1, abs.max = 1)
  Nonzeros         : 11585 constraint, 202 clique table
Presolvers         :   ExecTime  SetupTime  Calls  FixedVars   AggrVars   ChgTypes  ChgBounds   AddHoles    DelCons    AddCons   ChgSides   ChgCoefs
  boundshift       :       0.00       0.00      0          0          0          0          0          0          0          0          0          0
  convertinttobin  :       0.00       0.00      0          0          0          0          0          0          0          0          0          0
  domcol           :       0.00       0.00      1          0          0          0          0          0          0          0          0          0
  dualagg          :       0.00       0.00      0          0          0          0          0          0          0          0          0          0
  dualcomp         :       0.00       0.00      1          0          0          0          0          0          0          0          0          0
  dualinfer        :       0.00       0.00      0          0          0          0          0          0          0          0          0          0
  dualsparsify     :       0.00       0.00      1          0          0          0          0          0          0          0          0          0
  gateextraction   :       0.00       0.00      0          0          0          0          0          0          0          0          0          0
  implics          :       0.00       0.00      2          0          0          0          0          0          0          0          0          0
  inttobinary      :       0.00       0.00      0          0          0          0          0          0          0          0          0          0
  qpkktref         :       0.00       0.00      0          0          0          0          0          0          0          0          0          0
  redvub           :       0.00       0.00      0          0          0          0          0          0          0          0          0          0
  sparsify         :       0.00       0.00      1          0          0          0          0          0          0          0          0          0
  stuffing         :       0.00       0.00      0          0          0          0          0          0          0          0          0          0
  trivial          :       0.00       0.00      4          0          0          0          0          0          0          0          0          0
  tworowbnd        :       0.00       0.00      0          0          0          0          0          0          0          0          0          0
  dualfix          :       0.00       0.00      4          0          0          0          0          0          0          0          0          0
  genvbounds       :       0.00       0.00      0          0          0          0          0          0          0          0          0          0
  probing          :       0.11       0.00      1          0          0          0          0          0          0          0          0          0
  pseudoobj        :       0.00       0.00      1          0          0          0          1          0          0          0          0          0
  symmetry         :       0.00       0.00      0          0          0          0          0          0          0          0          0          0
  vbounds          :       0.00       0.00      1          0          0          0          0          0          0          0          0          0
  varbound         :       0.00       0.00      2          0          0          0          0          0          0          0          0          0
  and              :       0.00       0.00      2          0          0          0          0          0          0          0          0          0
  linear           :       0.01       0.00      2          0          0          0          0          0          0          0          0          0
  logicor          :       0.00       0.00      0          0          0          0          0          0          0          0          0          0
  bounddisjunction :       0.00       0.00      0          0          0          0          0          0          0          0          0          0
  nonlinear        :       0.14       0.01      5          0          0          0          1          0          0       1287          0          0
  benders          :       0.00       0.00      0          0          0          0          0          0          0          0          0          0
  components       :       0.00       0.00      1          0          0          0          0          0          0          0          0          0
  root node        :          -          -      -          0          -          -          8          -          -          -          -          -
Constraints        :     Number  MaxNumber  #Separate #Propagate    #EnfoLP    #EnfoRelax  #EnfoPS    #Check   #ResProp    Cutoffs    DomReds       Cuts    Applied      Conss   Children
  benderslp        :          0          0          0          0     581704          0          0      70438          0          0          0          0          0          0          0
  integral         :          0          0          0          0     581704          0          0      70438          0          0         30          0          0          0    1163336
  varbound         :         49         49         21    2636632          0          0          0       3412         31          0     368851          0          0          0          0
  and              :       1140       1140     678971    2652596          9          0          0       2977     172078          0    1939262        218        169          0          0
  linear           :         99+       110         21    2652716          9          0          0       2975      25544        605   14868016          0          0          0          0
  logicor          :          0+      2312          0     201675          0          0          0          0          2        246          6          0          0          0          0
  bounddisjunction :          0+      4619          0     291268          0          0          0          0         31        110          3          0          0          0          0
  benders          :          0          0          0          0          9          0          0         16          0          0          0          0          0          0          0
  countsols        :          0          0          0          0          9          0          0         16          0          0          0          0          0          0          0
  components       :          0          0          0          0          0          0          0          0          0          0          0          0          0          0          0
Constraint Timings :  TotalTime  SetupTime   Separate  Propagate     EnfoLP     EnfoPS     EnfoRelax   Check    ResProp    SB-Prop
  benderslp        :       0.54       0.00       0.00       0.00       0.50       0.00       0.00       0.04       0.00       0.00
  integral         :      98.56       0.00       0.00       0.00      98.29       0.00       0.00       0.27       0.00       0.00
  varbound         :       5.23       0.00       0.00       5.20       0.00       0.00       0.00       0.02       0.00       0.01
  and              :     192.31       0.00     152.11      39.39       0.01       0.00       0.00       0.24       0.12       0.44
  linear           :      70.76       0.00       0.02      70.47       0.00       0.00       0.00       0.03       0.11       0.13
  logicor          :       9.71       0.00       0.00       9.71       0.00       0.00       0.00       0.00       0.00       0.00
  bounddisjunction :      21.24       0.00       0.00      21.24       0.00       0.00       0.00       0.00       0.00       0.00
  benders          :       0.00       0.00       0.00       0.00       0.00       0.00       0.00       0.00       0.00       0.00
  countsols        :       0.00       0.00       0.00       0.00       0.00       0.00       0.00       0.00       0.00       0.00
  components       :       0.65       0.00       0.00       0.65       0.00       0.00       0.00       0.00       0.00       0.00
Propagators        : #Propagate   #ResProp    Cutoffs    DomReds
  dualfix          :          2          0          0          0
  genvbounds       :          0          0          0          0
  nlobbt           :          0          0          0          0
  obbt             :          0          0          0          0
  probing          :          0          0          0          0
  pseudoobj        :    2774540         26          0      13275
  redcost          :    1317193          0          0     392087
  rootredcost      :         14          0          0          0
  symmetry         :          0          0          0          0
  vbounds          :     467642          0          0          0
Propagator Timings :  TotalTime  SetupTime   Presolve  Propagate    ResProp    SB-Prop
  dualfix          :       0.00       0.00       0.00       0.00       0.00       0.00
  genvbounds       :       2.07       0.00       0.00       2.06       0.00       0.01
  nlobbt           :       0.00       0.00       0.00       0.00       0.00       0.00
  obbt             :       0.00       0.00       0.00       0.00       0.00       0.00
  probing          :       0.11       0.00       0.11       0.00       0.00       0.00
  pseudoobj        :       3.18       0.00       0.00       3.18       0.00       0.00
  redcost          :      46.04       0.00       0.00      46.03       0.00       0.01
  rootredcost      :       2.17       0.00       0.00       2.17       0.00       0.00
  symmetry         :       1.35       0.00       0.00       1.33       0.00       0.02
  vbounds          :       2.32       0.00       0.00       2.32       0.00       0.00
Conflict Analysis  :       Time      Calls    Success    DomReds  Conflicts   Literals    Reconvs ReconvLits   Dualrays   Nonzeros   LP Iters   (pool size: [10000,10000])
  propagation      :       0.00        356        243          -        403       76.6          0        0.0          -          -          -
  infeasible LP    :       0.85        640        640          -      22644      138.4          0        0.0        806      152.9          0
  bound exceed. LP :      12.28       4227       4059          -      47056       99.0          0        0.0          0        0.0      57844
  strong branching :       0.00          0          0          -          0        0.0          0        0.0          -          -          0
  pseudo solution  :       0.00          0          0          -          0        0.0          0        0.0          -          -          -
  applied globally :       0.27          -          -          0      15240       94.5          -          -        806          -          -
  applied locally  :          -          -          -          0          0        0.0          -          -          0          -          -
Separators         :   ExecTime  SetupTime      Calls  RootCalls    Cutoffs    DomReds  FoundCuts ViaPoolAdd  DirectAdd    Applied ViaPoolApp  DirectApp      Conss
  cut pool         :       5.97          -      89896         43          -          -      27353    1695067          -          -          -          -          -    (maximal pool size:       1762)
  aggregation      :      21.64       0.00       5064         21          0          0        472     121748          0      73945      73945          0          0
  > cmir           :          -          -          -          -          -          -          -     121722          0      73922      73922          0          -
  > flowcover      :          -          -          -          -          -          -          -         26          0         23         23          0          -
  > knapsackcover  :          -          -          -          -          -          -          -          0          0          0          0          0          -
  cgmip            :       0.00       0.00          0          0          0          0          0          0          0          0          0          0          0
  clique           :       0.00       0.00         21         21          0          0          0          0          0          0          0          0          0
  closecuts        :       0.00       0.00          0          0          0          0          0          0          0          0          0          0          0
  convexproj       :       0.00       0.00          0          0          0          0          0          0          0          0          0          0          0
  disjunctive      :       0.00       0.00          0          0          0          0          0          0          0          0          0          0          0
  eccuts           :       0.00       0.00          0          0          0          0          0          0          0          0          0          0          0
  gauge            :       0.00       0.00          0          0          0          0          0          0          0          0          0          0          0
  gomory           :       0.00       0.00          0          0          0          0          0          0          0          0          0          0          0
  > gomorymi       :          -          -          -          -          -          -          -          0          0          0          0          0          -
  > strongcg       :          -          -          -          -          -          -          -          0          0          0          0          0          -
  impliedbounds    :       0.32       0.00       5064         21          0          0          0          0          0          0          0          0          0
  interlattice     :       0.00       0.00          0          0          0          0          0          0          0          0          0          0          0
  interminor       :       0.00       0.00          0          0          0          0          0          0          0          0          0          0          0
  intersub         :       0.00       0.00          0          0          0          0          0          0          0          0          0          0          0
  intobj           :       0.00       0.00          0          0          0          0          0          0          0          0          0          0          0
  mcf              :       0.00       0.00          1          1          0          0          0          0          0          0          0          0          0
  minor            :       0.01       0.00          0          0          0          0          0          0          0          0          0          0          0
  mixing           :       0.03       0.00       5064         21          0          0          0          0          0          0          0          0          0
  oddcycle         :       0.00       0.00          0          0          0          0          0          0          0          0          0          0          0
  rapidlearning    :       0.12       0.00          0          0          0          0          0          0          0          0          0          0          0
  rlt              :       0.00       0.00         10         10          0          0          0          0          0          0          0          0          0
  zerohalf         :      16.54       0.00       4122         20          0          0      26881    1573319          0     361263     361263          0          0
Cutselectors       :   ExecTime  SetupTime      Calls  RootCalls   Selected     Forced   Filtered  RootSelec   RootForc   RootFilt 
  hybrid           :       1.16       0.00      58075         20     435377          0    1259908        118          0          7
Pricers            :   ExecTime  SetupTime      Calls       Vars
  problem variables:       0.00          -          0          0
Branching Rules    :   ExecTime  SetupTime   BranchLP  BranchExt   BranchPS    Cutoffs    DomReds       Cuts      Conss   Children
  allfullstrong    :       0.00       0.00          0          0          0          0          0          0          0          0
  cloud            :       0.00       0.00          0          0          0          0          0          0          0          0
  distribution     :       0.00       0.00          0          0          0          0          0          0          0          0
  fullstrong       :       0.00       0.00          0          0          0          0          0          0          0          0
  inference        :       0.00       0.00          0          0          0          0          0          0          0          0
  leastinf         :       0.00       0.00          0          0          0          0          0          0          0          0
  lookahead        :       0.00       0.00          0          0          0          0          0          0          0          0
  mostinf          :       0.00       0.00          0          0          0          0          0          0          0          0
  multaggr         :       0.00       0.00          0          0          0          0          0          0          0          0
  nodereopt        :       0.00       0.00          0          0          0          0          0          0          0          0
  pscost           :       0.00       0.00          0          0          0          0          0          0          0          0
  random           :       0.00       0.00          0          0          0          0          0          0          0          0
  relpscost        :      96.97       0.00     581695          0          0          0         30          0          0    1163336
  vanillafullstrong:       0.00       0.00          0          0          0          0          0          0          0          0
Primal Heuristics  :   ExecTime  SetupTime      Calls      Found       Best
  LP solutions     :       0.00          -          -          9          9
  relax solutions  :       0.00          -          -          0          0
  pseudo solutions :       0.00          -          -          0          0
  strong branching :       0.03          -          -          0          0
  actconsdiving    :       0.00       0.00          0          0          0
  adaptivediving   :       2.00       0.00         35          0          0
  alns             :       2.50       0.00         27          0          0
  bound            :       0.00       0.00          0          0          0
  clique           :       0.00       0.00          1          0          0
  coefdiving       :       0.00       0.00          0          0          0
  completesol      :       0.00       0.00          0          0          0
  conflictdiving   :     107.53       0.00        890          0          0
  crossover        :       1.59       0.00         12          0          0
  dins             :       0.00       0.00          0          0          0
  distributiondivin:      66.56       0.00        428          0          0
  dps              :       0.00       0.00          0          0          0
  dualval          :       0.00       0.00          0          0          0
  farkasdiving     :       0.03       0.00          0          0          0
  feaspump         :       0.09       0.00          2          1          0
  fixandinfer      :       0.00       0.00          0          0          0
  fracdiving       :      36.07       0.00        434          0          0
  gins             :       0.47       0.00          0          0          0
  guideddiving     :      35.17       0.00        416          0          0
  indicator        :       0.60       0.00          0          0          0
  indicatordiving  :       0.00       0.00          0          0          0
  intdiving        :       0.00       0.00          0          0          0
  intshifting      :       0.38       0.00        113          0          0
  linesearchdiving :      31.66       0.00        534          2          2
  localbranching   :       0.00       0.00          0          0          0
  locks            :       0.01       0.00          1          0          0
  lpface           :       0.46       0.00          0          0          0
  mpec             :      47.83       0.00         11          0          0
  multistart       :       0.00       0.00          0          0          0
  mutation         :       0.00       0.00          0          0          0
  nlpdiving        :       7.06       0.00          1          0          0
  objpscostdiving  :      15.80       0.00         45          2          0
  octane           :       0.00       0.00          0          0          0
  ofins            :       0.42       0.00          0          0          0
  oneopt           :       0.59       0.00         16          0          0
  padm             :       0.00       0.00          0          0          0
  proximity        :       0.00       0.00          0          0          0
  pscostdiving     :      36.18       0.00        307          2          2
  randrounding     :       2.33       0.00      70427          0          0
  rens             :       0.00       0.00          0          0          0
  reoptsols        :       0.00       0.00          0          0          0
  repair           :       0.00       0.00          0          0          0
  rins             :       4.06       0.00         52          0          0
  rootsoldiving    :      12.40       0.00        165          2          0
  rounding         :       2.22       0.00      11070          0          0
  shiftandpropagate:       0.00       0.00          0          0          0
  shifting         :      27.60       0.00      11647          1          1
  simplerounding   :       0.51       0.00          0          0          0
  subnlp           :     518.59       0.00          0          0          0
  trivial          :       0.02       0.00          2          2          2
  trivialnegation  :       0.00       0.00          0          0          0
  trustregion      :       0.00       0.00          0          0          0
  trysol           :       0.96       0.00          0          0          0
  twoopt           :       0.00       0.00          0          0          0
  undercover       :       3.59       0.00          1          1          1
  vbounds          :       0.00       0.00          0          0          0
  veclendiving     :      32.55       0.00        728          0          0
  zeroobj          :       0.00       0.00          0          0          0
  zirounding       :       0.62       0.00       1000          0          0
  other solutions  :          -          -          -          0          -
Diving (single)    :      Calls      Nodes   LP Iters Backtracks  Conflicts   MinDepth   MaxDepth   AvgDepth  RoundSols  NLeafSols  MinSolDpt  MaxSolDpt  AvgSolDpt
  actconsdiving    :          0          -          -          -          -          -          -          -          -          -          -          -          -
  coefdiving       :          0          -          -          -          -          -          -          -          -          -          -          -          -
  conflictdiving   :        890      41900    1232548        852      16254         64         86       77.0          0          -          -          -          -
  distributiondivin:        428      20798     416209        511       7579         58         94       78.2          0          -          -          -          -
  farkasdiving     :          0          -          -          -          -          -          -          -          -          -          -          -          -
  fracdiving       :        434      49495     416689        128       1114         74        321      143.2          0          -          -          -          -
  guideddiving     :        416      43209     416361         43       1590         65        377      132.0          0          -          -          -          -
  indicatordiving  :          0          -          -          -          -          -          -          -          -          -          -          -          -
  linesearchdiving :        534      28523     429332         63      11655         70        104       83.2          0          2         78         81       79.5
  pscostdiving     :        307      15183     447119        334       4359         72         93       79.6          0          2         82         86       84.0
  veclendiving     :        728      35528     412297        565      27365         64         97       78.1          0          -          -          -          -
Diving (adaptive)  :      Calls      Nodes   LP Iters Backtracks  Conflicts   MinDepth   MaxDepth   AvgDepth  RoundSols  NLeafSols  MinSolDpt  MaxSolDpt  AvgSolDpt
  actconsdiving    :          1         27         33          2          8         73         73       73.0          0          -          -          -          -
  coefdiving       :          6        343       3146          5        284         75         94       80.2          0          -          -          -          -
  conflictdiving   :          0          -          -          -          -          -          -          -          -          -          -          -          -
  distributiondivin:          0          -          -          -          -          -          -          -          -          -          -          -          -
  farkasdiving     :          0          -          -          -          -          -          -          -          -          -          -          -          -
  fracdiving       :          0          -          -          -          -          -          -          -          -          -          -          -          -
  guideddiving     :          3        361       3416          0          0        117        164      142.0          0          -          -          -          -
  indicatordiving  :          0          -          -          -          -          -          -          -          -          -          -          -          -
  linesearchdiving :         20       1026      13776          0        365         65         95       82.3          0          -          -          -          -
  pscostdiving     :          1         57       1144          1          6         84         84       84.0          0          -          -          -          -
  veclendiving     :          4        220       2694          3        172         70         85       76.2          0          -          -          -          -
Neighborhoods      :      Calls  SetupTime  SolveTime SolveNodes       Sols       Best       Exp3  EpsGreedy        UCB TgtFixRate  Opt  Inf Node Stal  Sol  Usr Othr Actv
  rens             :          5       0.13       0.08        134          0          0    0.00000   -1.00000    0.46815      0.716    0    3    0    2    0    0    0    1
  rins             :          3       0.08       0.10        158          0          0    0.00000   -1.00000    0.47260      0.863    0    1    0    2    0    0    0    1
  mutation         :          2       0.04       0.11         91          0          0    0.00000   -1.00000    0.46788      0.850    0    1    0    1    0    0    0    1
  localbranching   :          5       0.15       0.15        240          0          0    0.00000   -1.00000    0.46694      0.841    0    2    0    3    0    0    0    1
  crossover        :          4       0.16       0.29        142          0          0    0.00000   -1.00000    0.45729      0.822    0    2    0    2    0    0    0    1
  proximity        :          3       0.11       0.32        161          0          0    0.00000   -1.00000    0.46549      0.900    0    1    0    2    0    0    0    1
  zeroobjective    :          3       0.10       0.08        151          0          0    0.00000   -1.00000    0.46616      0.900    0    1    0    2    0    0    0    1
  dins             :          2       0.04       0.09         73          0          0    0.00000   -1.00000    0.47113      0.850    0    1    0    1    0    0    0    1
  trustregion      :          0       0.00       0.00          0          0          0    0.00000   -1.00000    1.00000      0.900    0    0    0    0    0    0    0    0
Expressions        :   #IntEval  IntEvalTi   #RevProp  RevPropTi    DomReds    Cutoffs  #Estimate  EstimTime  Branching  #Simplify SimplifyTi Simplified
  pow              :          0       0.00          0       0.00          0          0          0       0.00          0          0       0.00          0
  prod             :      17820       0.00          0       0.00          0          0          0       0.00          0      10050       0.01          0
  sum              :          8       0.01          2       0.00          0          0          0       0.00          0          3       0.06          2
  var              :       4679       0.01          0       0.00          0          0          0       0.00          0      21592       0.00          0
  varidx           :          0       0.00          0       0.00          0          0          0       0.00          0          0       0.00          0
LP                 :       Time      Calls Iterations  Iter/call   Iter/sec  Time-0-It Calls-0-It    ItLimit
  primal LP        :      72.43      31023          0       0.00       0.00      72.37      31023
  dual LP          :    1325.38    1066224    8110886       8.36    6119.67      27.17      95767
  lex dual LP      :       0.00          0          0       0.00          -
  barrier LP       :       0.00          0          0       0.00          -       0.00          0
  resolve instable :       0.00          0          0       0.00          -
  diving/probing LP:     287.65      22836    4046163     177.18   14066.27
  strong branching :       8.39       1838      97294      52.93   11596.42          -          -       2250
    (at root node) :          -         19       2186     115.05          -
  conflict analysis:       5.89       6397      57844       9.04    9820.71
NLP relaxation     :
  solve time       :       6.83 (9 calls)
  convexity        :  nonconvex (148 linear rows, 0 convex ineq., 0 nonconvex ineq., 1140 nonlinear eq. or two-sided ineq.)
NLP Solvers        :  #Problems  ProblemTi    #Solves  SolveTime      #Iter  Time/Iter      #Okay #TimeLimit #IterLimit #LObjLimit #Interrupt  #NumError #EvalError  #OutOfMem #LicenseEr #OtherTerm   #GlobOpt    #LocOpt  #Feasible #LocInfeas #GlobInfea #Unbounded   #Unknown
  ipopt            :         12      25.53         44      54.53       1745       0.03         42          0          2          0          0          0          0          0          0          0          0         24          0         18          0          0          2
B&B Tree           :
  number of runs   :          1
  nodes            :     912410 (581668 internal, 330742 leaves)
  feasible leaves  :          9
  infeas. leaves   :         28
  objective leaves :     330704
  nodes (total)    :     912410 (581668 internal, 330742 leaves)
  nodes left       :     250797
  max depth        :         81
  max depth (total):         81
  backtracks       :     190325 (20.9%)
  early backtracks :          0 (0.0%)
  nodes exc. ref.  :          0 (0.0%)
  delayed cutoffs  :          3
  repropagations   :         67 (822 domain reductions, 0 cutoffs)
  avg switch length:       7.66
  switching time   :     264.52
Estim. Tree Size   :    1825080
Estimation Tree    : 1163337 nodes (912540 visited, 581668 internal, 330872 leaves, 250797 open), weight: 0.0000 completed 0.0457
Estimations        :      estim      value      trend resolution     smooth
  wbe              :         in          -          -          -          -
  tree-profile     :         -1          -          -          -          -
  gap              :   38791279    0.61305    0.00001        512   39077028
  tree-weight      :    1825080    0.00000    0.00000        512    1823038
  leaf-frequency   :    1825080    0.36258   -0.00007        512    1823038
  ssg              :  219959627    0.92781   -0.00000        512  220281430
  open-nodes       :    1825080 250797.00000  488.46848        512    1823038
Root Node          :
  First LP value   : -5.44713804713805e+00
  First LP Iters   :       2193 (19936.36 Iter/sec)
  First LP Time    :       0.11
  Final Dual Bound : -5.37435465768799e+00
  Final Root Iters :       2473
  Root LP Estimate : -2.64970256735153e+00
Solution           :
  Solutions found  :         22 (17 improvements)
  First Solution   : +1.00000000000000e+05   (in run 1, after 0 nodes, 0.04 seconds, depth 0, found by <trivial>)
  Gap First Sol.   :   infinite
  Gap Last Sol.    :      64.93 %
  Primal Bound     : -2.93804713804717e+00   (in run 1, after 438599 nodes, 1866.52 seconds, depth 81, found by <linesearchdiving>)
  Dual Bound       : -4.79253023834962e+00
  Gap              :      63.12 %
Integrals          :      Total       Avg%
  primal-dual      :  143540.45      39.87
  primal-ref       :          -          - (not evaluated)
  dual-ref         :          -          - (not evaluated)
